
Gurobi 10.0.2 (win64) logging started Fri Jun 21 03:40:50 2024

Set parameter LogFile to value "log/log_difficulty1_MNL_DESKTOP-S7OVCUR_9_27.txt"
Gurobi Optimizer version 10.0.2 build v10.0.2rc0 (win64)

CPU model: Intel(R) Core(TM) i7-10510U CPU @ 1.80GHz, instruction set [SSE2|AVX|AVX2]
Thread count: 4 physical cores, 8 logical processors, using up to 8 threads

Optimize a model with 2020 rows, 676 columns and 4612 nonzeros
Model fingerprint: 0x4a48b71e
Variable types: 364 continuous, 312 integer (312 binary)
Coefficient statistics:
  Matrix range     [1e-03, 8e+02]
  Objective range  [1e+02, 6e+02]
  Bounds range     [1e+00, 1e+00]
  RHS range        [1e+00, 1e+00]
Found heuristic solution: objective -0.0000000
Presolve removed 224 rows and 104 columns
Presolve time: 0.05s
Presolved: 1796 rows, 572 columns, 4252 nonzeros
Found heuristic solution: objective 2061.0904587
Variable types: 308 continuous, 264 integer (264 binary)

Root relaxation: objective 1.554315e+04, 397 iterations, 0.02 seconds (0.00 work units)

    Nodes    |    Current Node    |     Objective Bounds      |     Work
 Expl Unexpl |  Obj  Depth IntInf | Incumbent    BestBd   Gap | It/Node Time

     0     0 15543.1455    0  153 2061.09046 15543.1455   654%     -    0s
H    0     0                    9895.5187528 15543.1455  57.1%     -    0s
H    0     0                    10426.801903 15543.1455  49.1%     -    0s
H    0     0                    10812.980250 15410.0949  42.5%     -    0s
H    0     0                    13372.486255 14795.8344  10.6%     -    0s
     0     0 14795.8344    0  202 13372.4863 14795.8344  10.6%     -    0s
     0     0 14786.6557    0  203 13372.4863 14786.6557  10.6%     -    0s
     0     0 14786.6557    0  203 13372.4863 14786.6557  10.6%     -    0s
     0     0 14425.8948    0  175 13372.4863 14425.8948  7.88%     -    0s
H    0     0                    13709.926357 14425.8948  5.22%     -    0s
H    0     0                    14184.009700 14399.4142  1.52%     -    0s
     0     0 14399.4142    0  158 14184.0097 14399.4142  1.52%     -    0s
     0     0 14398.5401    0  172 14184.0097 14398.5401  1.51%     -    0s
     0     0 14398.1672    0  173 14184.0097 14398.1672  1.51%     -    0s
H    0     0                    14207.021492 14398.1672  1.35%     -    0s
     0     0 14248.0037    0  183 14207.0215 14248.0037  0.29%     -    0s
     0     0 14247.9638    0  182 14207.0215 14247.9638  0.29%     -    0s
     0     0 14239.5400    0  183 14207.0215 14239.5400  0.23%     -    0s
     0     0 14238.8460    0  183 14207.0215 14238.8460  0.22%     -    0s
     0     0 14238.4649    0  184 14207.0215 14238.4649  0.22%     -    0s
H    0     0                    14211.835740 14238.4649  0.19%     -    0s
H    0     0                    14214.471763 14238.4649  0.17%     -    0s

Cutting planes:
  Gomory: 33
  Cover: 1
  Implied bound: 25
  MIR: 56
  Flow cover: 98
  RLT: 56
  Relax-and-lift: 8
  BQP: 10

Explored 1 nodes (1756 simplex iterations) in 0.45 seconds (0.16 work units)
Thread count was 8 (of 8 available processors)

Solution count 10: 14214.5 14211.8 14207 ... 2061.09

Optimal solution found (tolerance 1.00e-04)
Best objective 1.421447176281e+04, best bound 1.421537622175e+04, gap 0.0064%
